60
1 0 2
2 0 3
3 2 2
4 1 4
4 3 3
5 0 1
6 5 1
7 2 4
7 4 2
7 6 2
8 0 4
8 1 5
8 4 4
8 6 2
8 7 5
9 0 5
9 1 4
9 3 2
9 7 5
9 8 3
10 0 2
10 1 1
10 3 4
10 4 4
10 6 2
10 7 4
11 0 2
11 2 1
11 3 4
11 4 1
11 5 5
12 3 5
12 6 1
12 7 3
12 8 2
12 9 2
13 2 3
13 4 4
13 5 5
13 6 1
13 8 1
13 9 5
13 10 3
13 11 3
13 12 2
14 0 2
14 1 2
14 2 2
14 6 4
14 12 1
14 13 2
15 0 1
15 2 5
15 3 2
15 4 1
15 8 5
15 9 2
15 11 2
15 13 2
16 4 5
16 5 1
16 10 2
17 1 4
17 11 4
17 13 4
17 14 5
17 16 1
18 1 5
18 2 1
18 3 4
18 6 3
18 9 4
18 10 4
18 11 5
18 13 3
19 0 2
19 1 1
19 3 5
19 6 2
19 7 3
19 10 1
19 11 2
19 12 5
19 14 3
19 16 4
19 17 3
20 1 3
20 2 2
20 3 3
20 4 4
20 5 3
20 7 4
20 12 2
20 14 2
20 17 1
20 18 4
21 0 5
21 1 2
21 2 3
21 5 2
21 8 2
21 10 3
21 13 2
21 14 4
21 16 3
21 17 5
21 18 4
21 19 1
21 20 1
22 0 5
22 1 5
22 3 1
22 5 1
22 6 5
22 7 1
22 8 2
22 9 2
22 13 3
22 15 3
22 18 4
22 19 4
22 21 2
23 0 1
23 1 3
23 4 3
23 6 3
23 8 3
23 10 3
23 14 5
23 15 4
23 17 5
23 18 4
23 21 3
24 2 5
24 3 5
24 4 1
24 10 4
24 11 3
24 13 2
24 16 2
24 17 3
24 18 4
24 19 1
24 20 2
24 21 3
24 23 1
25 3 3
25 6 4
25 8 3
25 9 5
25 11 5
25 12 4
25 16 5
25 17 2
25 20 5
25 22 5
26 2 3
26 3 5
26 5 5
26 6 5
26 8 5
26 13 2
26 15 5
26 16 2
26 17 4
26 18 3
26 19 5
26 20 3
26 24 4
27 2 4
27 3 1
27 4 4
27 9 4
27 12 5
27 13 3
27 15 4
27 17 3
27 18 2
27 21 4
27 22 2
28 0 1
28 3 5
28 5 4
28 8 5
28 9 1
28 10 4
28 12 3
28 14 1
28 16 5
28 17 1
28 20 3
28 21 3
28 23 3
28 24 4
28 25 4
28 26 4
28 27 3
29 0 2
29 2 2
29 4 1
29 5 1
29 8 4
29 12 4
29 15 2
29 17 4
29 20 5
29 23 1
29 24 5
29 26 3
30 0 2
30 2 3
30 5 1
30 6 2
30 13 5
30 15 4
30 16 3
30 17 2
30 18 4
30 21 2
30 22 5
30 23 1
30 24 3
30 25 5
30 26 4
30 27 5
30 28 2
30 29 1
31 0 3
31 1 2
31 3 3
31 5 1
31 8 2
31 9 2
31 12 2
31 13 4
31 15 1
31 18 5
31 22 4
31 24 1
31 25 5
31 26 2
31 27 3
31 28 1
31 30 2
32 2 3
32 3 1
32 5 4
32 6 2
32 7 3
32 10 3
32 12 2
32 15 3
32 20 1
32 21 3
32 22 2
32 24 1
32 25 1
32 28 2
32 30 4
33 1 1
33 2 4
33 3 4
33 4 5
33 8 1
33 9 3
33 12 1
33 13 5
33 14 3
33 15 5
33 17 5
33 18 5
33 19 3
33 24 5
33 26 1
33 27 5
33 29 5
33 31 3
33 32 2
34 0 1
34 1 5
34 4 3
34 9 2
34 11 4
34 17 1
34 19 1
34 20 2
34 21 4
34 23 1
34 24 4
34 26 5
34 27 4
34 28 1
34 32 3
35 1 2
35 2 3
35 3 1
35 4 3
35 5 1
35 7 5
35 12 5
35 13 2
35 14 4
35 15 5
35 25 2
35 27 5
35 29 2
35 30 5
35 33 4
36 0 1
36 1 5
36 5 5
36 7 4
36 10 4
36 15 4
36 16 4
36 19 1
36 20 4
36 21 5
36 24 2
36 25 2
36 28 4
36 30 3
36 31 5
36 32 5
36 33 3
36 34 2
36 35 3
37 3 5
37 4 3
37 6 4
37 8 1
37 9 1
37 10 3
37 11 3
37 13 5
37 16 3
37 18 2
37 21 3
37 25 2
37 26 4
37 27 4
37 28 5
37 30 1
37 32 1
37 33 5
37 34 5
37 36 1
38 0 2
38 1 2
38 3 5
38 4 5
38 6 3
38 7 3
38 8 2
38 11 4
38 14 5
38 15 5
38 18 1
38 22 5
38 24 4
38 25 4
38 26 1
38 27 1
38 28 5
38 31 5
38 32 5
38 35 2
39 1 1
39 2 5
39 3 2
39 4 2
39 7 3
39 9 5
39 12 5
39 13 2
39 15 5
39 16 5
39 17 2
39 20 3
39 21 3
39 22 2
39 24 3
39 26 4
39 28 2
39 29 4
39 31 2
39 32 3
39 34 2
39 35 2
39 36 1
39 37 1
40 1 1
40 5 1
40 7 4
40 8 2
40 11 1
40 12 5
40 13 4
40 15 3
40 17 2
40 18 5
40 19 5
40 26 4
40 27 2
40 29 2
40 30 3
40 31 5
40 32 2
40 33 1
40 34 3
40 35 5
40 36 2
40 37 2
40 38 2
41 1 3
41 2 3
41 4 4
41 5 4
41 6 5
41 7 5
41 8 4
41 9 3
41 10 2
41 12 2
41 17 3
41 18 3
41 19 4
41 22 1
41 23 4
41 24 5
41 25 4
41 27 5
41 29 2
41 30 3
41 34 1
41 37 1
41 38 2
41 39 3
42 1 4
42 4 4
42 5 2
42 6 4
42 8 4
42 10 4
42 11 3
42 12 2
42 13 5
42 14 5
42 15 5
42 17 1
42 20 4
42 24 3
42 25 1
42 26 1
42 28 4
42 30 2
42 33 3
42 37 3
42 39 2
42 40 2
42 41 4
43 1 2
43 3 1
43 4 4
43 5 4
43 10 5
43 11 5
43 15 1
43 18 3
43 21 3
43 22 3
43 24 1
43 26 4
43 29 2
43 35 5
43 38 1
43 40 5
43 42 4
44 0 4
44 5 2
44 6 3
44 9 2
44 10 1
44 11 4
44 12 4
44 13 2
44 16 5
44 17 5
44 19 3
44 21 4
44 23 1
44 24 2
44 26 4
44 27 3
44 29 1
44 30 2
44 32 1
44 33 3
44 36 3
44 37 1
44 41 5
45 1 1
45 3 1
45 6 5
45 8 3
45 9 5
45 11 4
45 13 1
45 14 1
45 20 3
45 21 2
45 24 5
45 25 3
45 27 1
45 28 3
45 30 1
45 31 1
45 32 5
45 34 2
45 35 3
45 36 5
45 37 5
45 38 4
45 39 2
45 43 5
46 0 5
46 2 2
46 4 4
46 6 5
46 7 4
46 9 4
46 10 3
46 11 5
46 13 4
46 14 4
46 16 2
46 17 4
46 18 2
46 19 4
46 20 1
46 24 4
46 25 4
46 27 4
46 28 4
46 31 2
46 36 4
46 37 1
46 38 3
46 44 2
47 0 5
47 1 1
47 2 2
47 3 1
47 5 3
47 9 5
47 10 3
47 13 1
47 15 1
47 17 5
47 19 3
47 26 3
47 27 3
47 28 1
47 29 5
47 31 4
47 33 5
47 34 5
47 43 3
47 46 2
48 0 4
48 1 4
48 2 3
48 4 2
48 5 1
48 6 4
48 9 4
48 12 2
48 17 1
48 19 4
48 21 3
48 22 4
48 24 5
48 25 4
48 26 2
48 28 5
48 29 3
48 30 1
48 31 3
48 35 1
48 36 5
48 37 1
48 38 2
48 41 4
48 42 1
48 43 2
48 46 3
49 1 2
49 2 3
49 6 1
49 11 1
49 12 2
49 13 3
49 17 5
49 20 5
49 21 4
49 23 1
49 25 2
49 27 3
49 29 1
49 31 3
49 32 2
49 35 2
49 36 1
49 37 5
49 39 5
49 40 1
50 1 3
50 3 1
50 4 4
50 5 3
50 7 3
50 8 1
50 10 2
50 11 3
50 13 5
50 14 3
50 15 1
50 16 3
50 17 3
50 18 3
50 20 4
50 25 3
50 30 3
50 31 3
50 34 3
50 35 4
50 36 3
50 38 4
50 46 1
50 48 1
50 49 3
51 1 5
51 2 4
51 4 2
51 6 5
51 7 5
51 8 4
51 10 5
51 11 3
51 12 5
51 13 2
51 17 3
51 18 3
51 20 1
51 21 1
51 23 5
51 24 3
51 25 5
51 27 5
51 28 2
51 29 3
51 31 3
51 33 5
51 35 2
51 36 3
51 37 5
51 39 1
51 41 1
51 42 5
51 45 2
51 48 4
52 8 5
52 12 3
52 13 3
52 14 3
52 15 3
52 17 5
52 21 5
52 25 5
52 29 1
52 30 3
52 32 2
52 37 2
52 40 4
52 41 4
52 42 5
52 45 2
52 46 5
52 48 5
52 49 5
52 50 5
52 51 1
53 1 5
53 5 4
53 8 4
53 9 1
53 10 3
53 11 1
53 13 1
53 17 1
53 21 4
53 23 1
53 25 2
53 29 1
53 30 5
53 31 3
53 33 2
53 34 2
53 35 4
53 37 5
53 39 2
53 40 4
53 42 4
53 45 4
53 46 4
53 47 3
53 49 5
54 1 5
54 3 5
54 4 5
54 6 4
54 9 1
54 10 3
54 11 4
54 12 3
54 16 1
54 21 1
54 22 4
54 23 2
54 26 1
54 28 1
54 30 4
54 32 4
54 33 2
54 34 4
54 37 3
54 38 4
54 39 3
54 44 5
54 45 2
54 46 2
54 47 1
54 48 1
54 50 3
54 52 5
55 1 1
55 2 3
55 6 3
55 8 3
55 9 1
55 10 3
55 11 1
55 12 1
55 14 3
55 15 3
55 16 1
55 17 2
55 20 5
55 21 4
55 22 2
55 24 3
55 27 4
55 28 1
55 31 5
55 32 4
55 34 5
55 35 2
55 38 4
55 39 3
55 40 3
55 43 3
55 48 4
55 51 1
55 53 5
56 1 3
56 2 3
56 4 4
56 11 4
56 12 1
56 14 2
56 16 4
56 18 2
56 19 4
56 21 1
56 24 2
56 28 3
56 29 4
56 30 2
56 33 1
56 34 1
56 35 2
56 37 4
56 38 1
56 39 4
56 42 1
56 43 5
56 46 2
56 47 4
56 48 1
56 49 4
56 50 2
56 53 4
56 54 1
56 55 3
57 0 2
57 4 1
57 5 3
57 6 5
57 8 1
57 10 4
57 12 2
57 16 1
57 17 1
57 18 3
57 19 1
57 21 1
57 22 3
57 23 3
57 25 5
57 27 1
57 39 5
57 41 1
57 42 5
57 43 2
57 45 1
57 46 3
57 47 3
57 50 1
57 51 4
57 52 4
57 54 1
57 55 5
57 56 4
58 2 5
58 3 3
58 6 3
58 7 1
58 8 3
58 11 4
58 15 1
58 16 5
58 17 3
58 18 2
58 19 2
58 20 1
58 21 5
58 23 3
58 24 1
58 26 5
58 27 3
58 29 1
58 32 3
58 34 3
58 38 2
58 43 5
58 46 5
58 47 2
58 48 1
58 49 4
58 50 2
58 53 4
58 54 5
58 55 3
58 57 4
59 0 3
59 1 1
59 3 5
59 5 5
59 11 1
59 16 5
59 17 3
59 18 3
59 19 2
59 20 5
59 22 3
59 25 4
59 26 2
59 28 3
59 31 4
59 33 5
59 37 1
59 38 3
59 39 2
59 43 3
59 44 2
59 45 4
59 46 5
59 50 4
59 51 5
59 53 4
